590
0
2038
1219
818
850
1243
496
0
1710
1639
3468
2393
770
2830
1195
0
1398
947
0
0
3443
2822
0
1040
1232
2140
1797
1701
697
640
0
810
1635
1156
0
0
0
1221
690
1575
1849
1780
26
2223
2325
3491
1125
699
1426
1101
1653
0
1437
1060
1658
556
0
3474
536
0
74
1937
1214
396
895
1395
358
1167
919
1254
158
1553
1432
0
1758
2442
658
1850
220
2328
2032
1198
454
0
0
1757
1323
1761
1093
886
2339
1596
964
302
1730
374
1304
1455
